<?xml version = "1.0" encoding="UTF-8" standalone="yes"?>
<CPLEXSolution version="1.2">
 <header
   problemName="inst_10_cut_n11"
   objectiveValue="220.86585365853659"
   solutionTypeValue="1"
   solutionTypeString="basic"
   solutionStatusValue="1"
   solutionStatusString="optimal"
   solutionMethodString="primal"
   primalFeasible="1"
   dualFeasible="1"
   simplexIterations="0"
   writeLevel="1"/>
 <quality
   epRHS="9.9999999999999995e-07"
   epOpt="9.9999999999999995e-07"
   maxPrimalInfeas="0"
   maxDualInfeas="0"
   maxPrimalResidual="4.2632564145606011e-14"
   maxDualResidual="1.0658141036401503e-14"
   maxX="1"
   maxPi="1.0332594235033243"
   maxSlack="704.59756097560978"
   maxRedCost="113.80820399113082"
   kappa="28512.453272959621"/>
 <linearConstraints>
  <constraint name="c0" index="0" status="BS" slack="425.01219512195121" dual="-0"/>
  <constraint name="c1" index="1" status="BS" slack="563.63414634146341" dual="-0"/>
  <constraint name="c2" index="2" status="BS" slack="137.34146341463415" dual="-0"/>
  <constraint name="c3" index="3" status="BS" slack="127.09756097560975" dual="-0"/>
  <constraint name="c4" index="4" status="BS" slack="704.59756097560978" dual="-0"/>
  <constraint name="c5" index="5" status="BS" slack="0.09756097560976329" dual="-0"/>
  <constraint name="c6" index="6" status="BS" slack="291.95121951219517" dual="-0"/>
  <constraint name="c7" index="7" status="BS" slack="354.64634146341461" dual="-0"/>
  <constraint name="c8" index="8" status="BS" slack="490.46341463414637" dual="-0"/>
  <constraint name="c9" index="9" status="LL" slack="0" dual="0.5243902439024406"/>
  <constraint name="c10" index="10" status="BS" slack="591.69512195121956" dual="-0"/>
  <constraint name="cut_1" index="11" status="BS" slack="0.085365853658508684" dual="-0"/>
  <constraint name="cut_2" index="12" status="BS" slack="0.36585365853655327" dual="-0"/>
  <constraint name="cut_3" index="13" status="BS" slack="0.65853658536580184" dual="-0"/>
  <constraint name="cut_4" index="14" status="LL" slack="0" dual="1.0332594235033243"/>
  <constraint name="cut_5" index="15" status="BS" slack="0.50000000000003553" dual="-0"/>
  <constraint name="cut_6" index="16" status="BS" slack="0.91463414634146289" dual="-0"/>
  <constraint name="cut_7" index="17" status="BS" slack="0.2439024390244029" dual="-0"/>
  <constraint name="cut_8" index="18" status="BS" slack="0.5487804878049154" dual="-0"/>
  <constraint name="cut_9" index="19" status="BS" slack="0.53658536585368921" dual="-0"/>
  <constraint name="cut_10" index="20" status="BS" slack="1.3658536585365937" dual="-0"/>
  <constraint name="cut_11" index="21" status="BS" slack="0.49999999999999289" dual="-0"/>
 </linearConstraints>
 <variables>
  <variable name="x0" index="0" status="LL" value="0" reducedCost="-97.209534368070905"/>
  <variable name="x1" index="1" status="LL" value="0" reducedCost="-29.617516629711744"/>
  <variable name="x2" index="2" status="LL" value="0" reducedCost="-113.80820399113082"/>
  <variable name="x3" index="3" status="BS" value="0.085365853658536384" reducedCost="0"/>
  <variable name="x4" index="4" status="LL" value="0" reducedCost="-107.70953436807096"/>
  <variable name="x5" index="5" status="UL" value="1" reducedCost="33.227272727272762"/>
  <variable name="x6" index="6" status="UL" value="1" reducedCost="7.1219512195121979"/>
  <variable name="x7" index="7" status="BS" value="0.73170731707317083" reducedCost="0"/>
  <variable name="s0" index="8" status="LL" value="0" reducedCost="0"/>
  <variable name="s1" index="9" status="LL" value="0" reducedCost="0"/>
  <variable name="s2" index="10" status="LL" value="0" reducedCost="0"/>
  <variable name="s3" index="11" status="LL" value="0" reducedCost="0"/>
  <variable name="s4" index="12" status="LL" value="0" reducedCost="0"/>
  <variable name="s5" index="13" status="LL" value="0" reducedCost="0"/>
  <variable name="s6" index="14" status="LL" value="0" reducedCost="0"/>
  <variable name="s7" index="15" status="LL" value="0" reducedCost="0"/>
  <variable name="s8" index="16" status="LL" value="0" reducedCost="0"/>
  <variable name="s9" index="17" status="LL" value="0" reducedCost="-0.5243902439024406"/>
  <variable name="s10" index="18" status="LL" value="0" reducedCost="0"/>
 </variables>
 <objectiveValues>
  <objective index="0" name="" value="220.86585365853659"/>
 </objectiveValues>
</CPLEXSolution>
